(set-info :smt-lib-version 2.6)
(set-logic QF_FP)
(set-option :produce-models true)
(set-info :source |Random FP created by PyMPF|)
(set-info :license |https://www.gnu.org/licenses/gpl-3.0.html|)
(set-info :category random)
(set-info :status sat)
(declare-const x Float32)
(assert (= x (fp #b1 #b00000001 #b00000000000000000000000)))
;; x should be Float32(0x80800000 [Rational(-1, 85070591730234615865843651857942052864), -0.000000])

(declare-const y Float32)
(assert (= y ((_ to_fp 8 24) #x077C3015)))
;; y should be Float32(0x077C3015 [Rational(16527381, 87112285931760246646623899502532662132736), 0.000000])

(declare-const result Float32)
(assert (= result (fp.div RTP x y)))
(assert (= result (fp #b1 #b01110001 #b00000011110111101010101)))
(check-sat)
(exit)
